p wcnf 155 310 311 
1 -109 -101 0 
1 -14 134 0 
1 25 -112 0 
1 86 -80 0 
1 131 71 0 
1 87 -86 0 
1 -133 8 0 
1 84 -73 0 
1 -11 65 0 
1 -67 -107 0 
1 -137 -29 0 
1 -63 -102 0 
1 -6 61 0 
1 -90 -150 0 
1 -73 -60 0 
1 2 45 0 
1 61 36 0 
1 -38 -152 0 
1 -87 78 0 
1 59 98 0 
1 70 -64 0 
1 89 -66 0 
1 -72 56 0 
1 101 63 0 
1 -115 25 0 
1 -7 138 0 
1 -137 -3 0 
1 -57 31 0 
1 -8 -52 0 
1 27 -80 0 
1 89 -120 0 
1 -97 -79 0 
1 -39 149 0 
1 -64 -102 0 
1 57 145 0 
1 -60 -125 0 
1 -41 -43 0 
1 -38 49 0 
1 2 -87 0 
1 -54 62 0 
1 37 71 0 
1 -131 12 0 
1 141 -45 0 
1 -33 -35 0 
1 109 -57 0 
1 -125 109 0 
1 113 -107 0 
1 -65 124 0 
1 126 -151 0 
1 71 -30 0 
1 -87 40 0 
1 104 -23 0 
1 -29 59 0 
1 12 -149 0 
1 -42 99 0 
1 85 14 0 
1 59 71 0 
1 140 129 0 
1 113 20 0 
1 34 144 0 
1 13 89 0 
1 101 65 0 
1 50 -150 0 
1 -66 15 0 
1 -27 -140 0 
1 -109 -121 0 
1 -67 44 0 
1 59 31 0 
1 -87 -36 0 
1 -80 -67 0 
1 -99 -7 0 
1 -70 69 0 
1 62 63 0 
1 17 56 0 
1 -148 28 0 
1 -98 135 0 
1 -56 -80 0 
1 48 -50 0 
1 149 -115 0 
1 -152 45 0 
1 -38 -20 0 
1 -103 144 0 
1 -128 51 0 
1 72 -99 0 
1 -87 150 0 
1 -66 -83 0 
1 -103 52 0 
1 -19 -153 0 
1 49 -7 0 
1 -47 70 0 
1 94 109 0 
1 -153 110 0 
1 -152 -3 0 
1 -42 -148 0 
1 -100 -24 0 
1 -7 -106 0 
1 47 -112 0 
1 -129 -82 0 
1 142 -119 0 
1 63 85 0 
1 12 111 0 
1 -151 36 0 
1 117 127 0 
1 -42 -85 0 
1 143 -80 0 
1 -26 -141 0 
1 -84 86 0 
1 126 33 0 
1 53 -54 0 
1 -18 22 0 
1 89 77 0 
1 25 -35 0 
1 93 -114 0 
1 -143 89 0 
1 -124 134 0 
1 132 2 0 
1 -27 -47 0 
1 -147 61 0 
1 -127 -114 0 
1 113 -103 0 
1 -56 -65 0 
1 -114 94 0 
1 -92 107 0 
1 -154 -12 0 
1 148 49 0 
1 41 -31 0 
1 -17 126 0 
1 152 -71 0 
1 24 129 0 
1 7 141 0 
1 -1 95 0 
1 15 -150 0 
1 -79 -57 0 
1 -147 69 0 
1 36 50 0 
1 37 -78 0 
1 -144 1 0 
1 106 -29 0 
1 -67 -99 0 
1 125 48 0 
1 -6 -44 0 
1 146 -28 0 
1 -10 -114 0 
1 44 -30 0 
1 124 -95 0 
1 -105 118 0 
1 64 -49 0 
1 26 106 0 
1 -150 82 0 
1 -142 68 0 
1 97 -131 0 
1 -41 -60 0 
1 134 -129 0 
1 80 -141 0 
1 75 -15 0 
1 27 -70 0 
1 -37 -107 0 
1 -112 47 0 
1 132 50 0 
1 108 56 0 
1 16 103 0 
1 15 -75 0 
1 -65 -71 0 
1 108 -12 0 
1 134 91 0 
1 61 14 0 
1 3 129 0 
1 80 -30 0 
1 -128 83 0 
1 71 -3 0 
1 -42 129 0 
1 -33 136 0 
1 -51 -6 0 
1 77 47 0 
1 98 4 0 
1 -144 -12 0 
1 -143 -65 0 
1 145 118 0 
1 -146 -143 0 
1 -74 -50 0 
1 41 59 0 
1 -56 -76 0 
1 -44 82 0 
1 -65 -19 0 
1 -4 83 0 
1 137 -76 0 
1 59 -121 0 
1 -5 135 0 
1 8 -84 0 
1 -30 88 0 
1 101 119 0 
1 -90 -16 0 
1 -116 -101 0 
1 -131 43 0 
1 94 -6 0 
1 134 -130 0 
1 -79 -55 0 
1 126 -90 0 
1 -102 121 0 
1 39 6 0 
1 98 -141 0 
1 -27 -51 0 
1 128 30 0 
1 124 -130 0 
1 -46 -20 0 
1 -128 56 0 
1 -60 116 0 
1 33 95 0 
1 47 -108 0 
1 134 3 0 
1 47 85 0 
1 -31 3 0 
1 45 5 0 
1 153 -138 0 
1 -65 140 0 
1 66 65 0 
1 -121 132 0 
1 -69 -70 0 
1 -78 85 0 
1 81 -20 0 
1 50 -86 0 
1 -153 -30 0 
1 -89 60 0 
1 -146 14 0 
1 151 111 0 
1 -89 -48 0 
1 -13 -58 0 
1 -79 -30 0 
1 5 -30 0 
1 -148 39 0 
1 -113 -131 0 
1 118 5 0 
1 74 54 0 
1 77 -43 0 
1 121 -148 0 
1 30 80 0 
1 66 -146 0 
1 29 46 0 
1 -9 85 0 
1 -148 -94 0 
1 155 -112 0 
1 150 121 0 
1 -22 78 0 
1 -108 -39 0 
1 -41 119 0 
1 51 128 0 
1 -11 -90 0 
1 -22 -117 0 
1 101 -99 0 
1 99 92 0 
1 49 -144 0 
1 -56 -25 0 
1 -66 83 0 
1 -21 -138 0 
1 -102 79 0 
1 114 -27 0 
1 40 -21 0 
1 -4 -112 0 
1 -61 -153 0 
1 -83 91 0 
1 92 -99 0 
1 -54 11 0 
1 1 -65 0 
1 -26 21 0 
1 74 70 0 
1 120 -50 0 
1 70 -88 0 
1 -143 146 0 
1 49 64 0 
1 -51 12 0 
1 96 86 0 
1 -29 92 0 
1 -39 30 0 
1 84 -30 0 
1 -119 125 0 
1 -1 63 0 
1 49 66 0 
1 143 -152 0 
1 93 -101 0 
1 -48 -28 0 
1 108 -17 0 
1 20 -95 0 
1 -131 119 0 
1 35 95 0 
1 40 -77 0 
1 21 101 0 
1 -69 -73 0 
1 -97 -131 0 
1 26 -55 0 
1 113 -151 0 
1 48 -66 0 
1 2 50 0 
1 100 125 0 
1 64 -82 0 
1 -109 -62 0 
1 -19 107 0 
1 94 -109 0 
1 151 -86 0 
1 17 119 0 
1 -142 92 0 
1 95 33 0 
1 129 -79 0 
1 -84 -101 0 
1 -133 -14 0 
1 -122 125 0 
1 -14 49 0 
1 -71 104 0 
1 -99 78 0 
1 -45 131 0 
1 -28 52 0 
